
******************************************************************************
This program contains Ipopt, a library for large-scale nonlinear optimization.
 Ipopt is released as open source code under the Eclipse Public License (EPL).
         For more information visit http://projects.coin-or.org/Ipopt

This version of Ipopt was compiled from source code available at
    https://github.com/IDAES/Ipopt as part of the Institute for the Design of
    Advanced Energy Systems Process Systems Engineering Framework (IDAES PSE
    Framework) Copyright (c) 2018-2019. See https://github.com/IDAES/idaes-pse.

This version of Ipopt was compiled using HSL, a collection of Fortran codes
    for large-scale scientific computation.  All technical papers, sales and
    publicity material resulting from use of the HSL codes within IPOPT must
    contain the following acknowledgement:
        HSL, a collection of Fortran codes for large-scale scientific
        computation. See http://www.hsl.rl.ac.uk.
******************************************************************************

This is Ipopt version 3.13.2, running with linear solver ma27.

Number of nonzeros in equality constraint Jacobian...:      808
Number of nonzeros in inequality constraint Jacobian.:        0
Number of nonzeros in Lagrangian Hessian.............:      702

Total number of variables............................:      351
                     variables with only lower bounds:      108
                variables with lower and upper bounds:      189
                     variables with only upper bounds:        0
Total number of equality constraints.................:      350
Total number of inequality constraints...............:        0
        inequality constraints with only lower bounds:        0
   inequality constraints with lower and upper bounds:        0
        inequality constraints with only upper bounds:        0

iter    objective    inf_pr   inf_du lg(mu)  ||d||  lg(rg) alpha_du alpha_pr  ls
   0  0.0000000e+00 3.78e-01 1.78e-15  -1.0 0.00e+00    -  0.00e+00 0.00e+00   0
   1  1.8066982e-01 7.78e-01 2.30e+04  -1.0 6.32e+04    -  8.64e-01 4.64e-01h  1
   2  8.6872036e-01 2.00e-01 1.06e+04  -1.0 3.58e+04    -  7.36e-02 9.90e-01h  1
   3  8.9562068e-01 3.63e-02 5.14e+02  -1.0 1.24e+03    -  9.88e-01 9.90e-01h  1
   4  9.0943146e-01 9.70e-03 1.19e+03  -1.0 5.13e+03    -  9.84e-01 9.90e-01h  1
   5  9.1916182e-01 9.58e-03 6.68e+06  -1.0 4.32e+04    -  4.20e-01 6.19e-02h  5
   6  9.1915177e-01 2.20e-04 6.68e+04  -1.0 6.25e+00  -4.0 9.90e-01 9.90e-01h  1
   7  9.2616032e-01 1.59e-04 1.97e+05  -1.0 1.69e+03    -  9.90e-01 9.90e-01h  1
   8  9.2488165e-01 1.59e-04 5.43e+09  -2.5 9.43e+03    -  9.97e-01 3.12e-02h  6
   9  9.2405722e-01 1.58e-04 1.11e+10  -2.5 1.23e+04    -  1.00e+00 1.56e-02h  7
iter    objective    inf_pr   inf_du lg(mu)  ||d||  lg(rg) alpha_du alpha_pr  ls
  10  9.2315859e-01 1.58e-04 1.67e+10  -2.5 1.36e+04    -  1.00e+00 1.56e-02h  7
  11  9.2269475e-01 1.57e-04 2.25e+10  -2.5 1.42e+04    -  1.00e+00 7.79e-03h  8
  12  9.2222268e-01 1.57e-04 2.83e+10  -2.5 1.45e+04    -  1.00e+00 7.79e-03h  8
  13  9.2174847e-01 1.56e-04 3.41e+10  -2.5 1.47e+04    -  1.00e+00 7.79e-03h  8
  14  9.2127561e-01 1.56e-04 3.99e+10  -2.5 1.47e+04    -  1.00e+00 7.79e-03h  8
  15  9.2080618e-01 1.55e-04 4.58e+10  -2.5 1.47e+04    -  1.00e+00 7.79e-03h  8
  16  9.2034143e-01 1.55e-04 5.16e+10  -2.5 1.47e+04    -  1.00e+00 7.79e-03h  8
  17  9.1988212e-01 1.54e-04 5.74e+10  -2.5 1.46e+04    -  1.00e+00 7.79e-03h  8
  18  8.8815986e-01 2.55e-02 1.80e+08  -2.5 1.45e+04    -  1.00e+00 9.97e-01w  1
  19  8.8801429e-01 5.35e-04 6.32e+09  -2.5 1.34e+02    -  1.00e+00 9.97e-01w  1
In iteration 19, 27 Slacks too small, adjusting variable bounds
iter    objective    inf_pr   inf_du lg(mu)  ||d||  lg(rg) alpha_du alpha_pr  ls
  20  8.8814030e-01 3.04e-05 2.24e+12  -2.5 3.38e+02    -  1.00e+00 9.97e-01h  1
  21  8.8814255e-01 1.47e-08 4.39e-02  -2.5 5.52e+00    -  1.00e+00 1.00e+00h  1
  22  8.8780855e-01 3.45e-04 3.53e+09  -9.0 1.37e+03    -  9.98e-01 1.00e+00f  1
  23  8.8779797e-01 8.90e-06 1.33e-03  -9.0 2.65e+02    -  1.00e+00 1.00e+00h  1
  24  8.8779792e-01 2.45e-08 3.47e-06  -9.0 1.24e+01    -  1.00e+00 1.00e+00h  1
  25  8.8779792e-01 3.02e-13 1.16e-10  -9.0 2.67e-02    -  1.00e+00 1.00e+00h  1

Number of Iterations....: 25

                                   (scaled)                 (unscaled)
Objective...............:   8.8779791923100437e-01    8.8779791923100437e-01
Dual infeasibility......:   1.1641532182693481e-10    1.1641532182693481e-10
Constraint violation....:   3.0170310694188629e-13    3.0170310694188629e-13
Complementarity.........:   9.0927509568500249e-10    9.0927509568500249e-10
Overall NLP error.......:   2.2095849248959174e-12    9.0927509568500249e-10


Number of objective function evaluations             = 137
Number of objective gradient evaluations             = 26
Number of equality constraint evaluations            = 137
Number of inequality constraint evaluations          = 0
Number of equality constraint Jacobian evaluations   = 26
Number of inequality constraint Jacobian evaluations = 0
Number of Lagrangian Hessian evaluations             = 25
Total CPU secs in IPOPT (w/o function evaluations)   =      0.053
Total CPU secs in NLP function evaluations           =      1.027

EXIT: Optimal Solution Found.
